param n := 60;
param c := 1000;
param : V : p w :=
   0	  34	 496
   1	  83	 250
   2	  36	 254
   3	   9	 396
   4	  29	 270
   5	  16	 334
   6	  60	 483
   7	  22	 252
   8	  30	 265
   9	  95	 463
  10	  86	 261
  11	  83	 276
  12	  57	 389
  13	   2	 283
  14	  11	 328
  15	  88	 380
  16	  79	 268
  17	  65	 352
  18	  57	 416
  19	  54	 282
  20	  22	 302
  21	  73	 388
  22	  77	 252
  23	  34	 360
  24	  72	 489
  25	  79	 252
  26	  54	 259
  27	  48	 433
  28	  74	 281
  29	  57	 286
  30	  56	 380
  31	  75	 285
  32	  13	 335
  33	  91	 372
  34	  68	 301
  35	  23	 327
  36	  37	 372
  37	  75	 281
  38	  16	 347
  39	  12	 355
  40	   1	 305
  41	  66	 340
  42	  76	 432
  43	  46	 278
  44	  77	 290
  45	   8	 462
  46	  59	 262
  47	  81	 276
  48	  38	 484
  49	  61	 252
  50	  98	 264
  51	  59	 422
  52	  84	 282
  53	  56	 296
  54	  24	 469
  55	  93	 262
  56	  38	 269
  57	  62	 358
  58	  11	 281
  59	  59	 361
;

set E :=
   0	   4
   0	   6
   0	  12
   0	  14
   0	  15
   0	  28
   0	  32
   0	  37
   0	  38
   0	  45
   0	  48
   0	  52
   0	  55
   1	   2
   1	   4
   1	   5
   1	   9
   1	  11
   1	  12
   1	  14
   1	  18
   1	  23
   1	  38
   1	  40
   1	  51
   1	  52
   2	   6
   2	   7
   2	   8
   2	  11
   2	  15
   2	  20
   2	  21
   2	  22
   2	  24
   2	  26
   2	  28
   2	  29
   2	  30
   2	  35
   2	  37
   2	  38
   2	  41
   2	  44
   2	  45
   2	  47
   2	  49
   2	  54
   2	  58
   2	  59
   3	   6
   3	   8
   3	   9
   3	  10
   3	  13
   3	  19
   3	  21
   3	  24
   3	  25
   3	  28
   3	  29
   3	  35
   3	  39
   3	  42
   3	  47
   3	  48
   3	  54
   3	  57
   4	   7
   4	  11
   4	  17
   4	  18
   4	  22
   4	  25
   4	  30
   4	  33
   4	  43
   4	  47
   4	  51
   4	  56
   4	  57
   4	  58
   5	   9
   5	  11
   5	  18
   5	  23
   5	  24
   5	  28
   5	  29
   5	  30
   5	  32
   5	  34
   5	  35
   5	  37
   5	  41
   5	  43
   5	  45
   5	  46
   5	  52
   5	  55
   5	  57
   6	   7
   6	   9
   6	  10
   6	  13
   6	  16
   6	  20
   6	  24
   6	  26
   6	  29
   6	  33
   6	  37
   6	  40
   6	  41
   6	  42
   6	  44
   6	  46
   6	  50
   6	  52
   6	  59
   7	  11
   7	  13
   7	  14
   7	  15
   7	  20
   7	  25
   7	  28
   7	  38
   7	  39
   7	  40
   7	  44
   7	  50
   7	  55
   7	  57
   8	  10
   8	  12
   8	  13
   8	  15
   8	  16
   8	  23
   8	  29
   8	  30
   8	  31
   8	  37
   8	  39
   8	  41
   8	  47
   8	  49
   8	  52
   8	  53
   9	  12
   9	  17
   9	  19
   9	  23
   9	  24
   9	  31
   9	  32
   9	  45
   9	  47
   9	  48
   9	  49
   9	  51
   9	  52
   9	  53
   9	  54
   9	  59
  10	  17
  10	  18
  10	  20
  10	  23
  10	  25
  10	  28
  10	  30
  10	  34
  10	  36
  10	  38
  10	  39
  10	  41
  10	  43
  10	  55
  11	  13
  11	  18
  11	  21
  11	  26
  11	  30
  11	  31
  11	  40
  11	  42
  11	  45
  11	  55
  12	  14
  12	  16
  12	  20
  12	  21
  12	  23
  12	  33
  12	  45
  12	  47
  12	  48
  12	  52
  12	  53
  12	  57
  12	  58
  13	  18
  13	  19
  13	  21
  13	  22
  13	  30
  13	  34
  13	  35
  13	  40
  13	  42
  13	  48
  13	  49
  13	  52
  13	  53
  14	  15
  14	  16
  14	  20
  14	  22
  14	  24
  14	  27
  14	  28
  14	  30
  14	  32
  14	  36
  14	  42
  14	  44
  15	  21
  15	  34
  15	  36
  15	  38
  15	  39
  15	  40
  15	  44
  15	  45
  16	  19
  16	  20
  16	  22
  16	  25
  16	  26
  16	  28
  16	  29
  16	  30
  16	  31
  16	  33
  16	  38
  16	  41
  16	  43
  16	  45
  16	  47
  16	  49
  16	  58
  17	  18
  17	  19
  17	  22
  17	  28
  17	  36
  17	  38
  17	  40
  17	  42
  17	  53
  17	  54
  17	  57
  18	  25
  18	  29
  18	  30
  18	  31
  18	  35
  18	  37
  18	  38
  18	  39
  18	  41
  18	  44
  18	  47
  18	  48
  18	  49
  18	  51
  18	  52
  18	  54
  18	  56
  18	  57
  18	  59
  19	  20
  19	  22
  19	  24
  19	  30
  19	  32
  19	  45
  19	  48
  19	  56
  20	  22
  20	  23
  20	  24
  20	  28
  20	  32
  20	  33
  20	  34
  20	  39
  20	  40
  20	  42
  20	  43
  20	  50
  20	  53
  20	  57
  20	  59
  21	  23
  21	  25
  21	  29
  21	  30
  21	  31
  21	  32
  21	  37
  21	  39
  21	  46
  21	  54
  21	  55
  21	  58
  22	  24
  22	  28
  22	  37
  22	  39
  22	  40
  22	  41
  22	  42
  22	  45
  22	  47
  22	  49
  22	  51
  22	  52
  22	  55
  22	  56
  22	  57
  23	  24
  23	  25
  23	  26
  23	  27
  23	  30
  23	  32
  23	  35
  23	  36
  23	  40
  23	  42
  23	  45
  23	  53
  23	  56
  23	  57
  24	  25
  24	  26
  24	  28
  24	  29
  24	  31
  24	  33
  24	  36
  24	  40
  24	  45
  24	  48
  24	  54
  24	  55
  24	  59
  25	  26
  25	  27
  25	  28
  25	  30
  25	  32
  25	  34
  25	  43
  25	  47
  25	  48
  25	  49
  25	  51
  25	  57
  25	  58
  26	  30
  26	  34
  26	  42
  26	  43
  26	  47
  26	  49
  26	  50
  26	  54
  26	  55
  26	  56
  26	  57
  27	  29
  27	  37
  27	  43
  27	  46
  27	  52
  27	  53
  27	  55
  27	  59
  28	  30
  28	  33
  28	  34
  28	  35
  28	  42
  28	  45
  28	  48
  28	  51
  28	  53
  28	  55
  28	  56
  28	  57
  29	  33
  29	  34
  29	  35
  29	  40
  29	  43
  29	  45
  29	  47
  29	  48
  29	  54
  29	  56
  29	  59
  30	  33
  30	  35
  30	  37
  30	  38
  30	  39
  30	  49
  30	  50
  30	  51
  30	  52
  30	  53
  30	  56
  31	  37
  31	  38
  31	  39
  31	  41
  31	  44
  31	  49
  31	  54
  31	  56
  31	  59
  32	  39
  32	  41
  32	  50
  32	  54
  32	  57
  32	  59
  33	  36
  33	  37
  33	  38
  33	  44
  33	  45
  33	  54
  34	  39
  34	  46
  34	  47
  34	  55
  35	  44
  35	  50
  35	  53
  35	  54
  35	  56
  35	  59
  36	  41
  36	  50
  36	  51
  37	  40
  37	  44
  37	  46
  37	  50
  37	  51
  37	  52
  37	  55
  37	  56
  38	  42
  38	  47
  38	  48
  38	  52
  38	  56
  38	  59
  39	  41
  39	  45
  39	  49
  39	  52
  39	  55
  40	  41
  40	  44
  40	  45
  40	  47
  40	  49
  40	  50
  40	  54
  40	  55
  41	  50
  41	  52
  41	  53
  41	  58
  42	  44
  42	  46
  42	  47
  42	  51
  42	  53
  42	  54
  42	  59
  43	  45
  43	  47
  43	  49
  43	  50
  43	  52
  44	  56
  44	  57
  45	  46
  45	  48
  45	  52
  45	  55
  45	  58
  45	  59
  46	  49
  46	  50
  46	  57
  46	  58
  46	  59
  47	  58
  47	  59
  48	  49
  48	  51
  48	  56
  48	  57
  48	  58
  49	  55
  49	  56
  49	  57
  50	  55
  50	  57
  51	  54
  51	  59
  52	  53
  52	  59
  53	  54
  53	  55
  53	  57
  54	  57
  55	  56
  55	  59
  56	  59
  57	  58
;
